c CNF file corresponding to a (partial) station packing problem.
p cnf 1731 213
1716 1717 1718 1719 1720 1721 1722 1723 1724 1725 1726 1727 1728 1729 1730 1731 0
-1716 -1717 0
-1716 -1718 0
-1716 -1719 0
-1716 -1720 0
-1716 -1721 0
-1716 -1722 0
-1716 -1723 0
-1716 -1724 0
-1716 -1725 0
-1716 -1726 0
-1716 -1727 0
-1716 -1728 0
-1716 -1729 0
-1716 -1730 0
-1716 -1731 0
-1717 -1718 0
-1717 -1719 0
-1717 -1720 0
-1717 -1721 0
-1717 -1722 0
-1717 -1723 0
-1717 -1724 0
-1717 -1725 0
-1717 -1726 0
-1717 -1727 0
-1717 -1728 0
-1717 -1729 0
-1717 -1730 0
-1717 -1731 0
-1718 -1719 0
-1718 -1720 0
-1718 -1721 0
-1718 -1722 0
-1718 -1723 0
-1718 -1724 0
-1718 -1725 0
-1718 -1726 0
-1718 -1727 0
-1718 -1728 0
-1718 -1729 0
-1718 -1730 0
-1718 -1731 0
-1719 -1720 0
-1719 -1721 0
-1719 -1722 0
-1719 -1723 0
-1719 -1724 0
-1719 -1725 0
-1719 -1726 0
-1719 -1727 0
-1719 -1728 0
-1719 -1729 0
-1719 -1730 0
-1719 -1731 0
-1720 -1721 0
-1720 -1722 0
-1720 -1723 0
-1720 -1724 0
-1720 -1725 0
-1720 -1726 0
-1720 -1727 0
-1720 -1728 0
-1720 -1729 0
-1720 -1730 0
-1720 -1731 0
-1721 -1722 0
-1721 -1723 0
-1721 -1724 0
-1721 -1725 0
-1721 -1726 0
-1721 -1727 0
-1721 -1728 0
-1721 -1729 0
-1721 -1730 0
-1721 -1731 0
-1722 -1723 0
-1722 -1724 0
-1722 -1725 0
-1722 -1726 0
-1722 -1727 0
-1722 -1728 0
-1722 -1729 0
-1722 -1730 0
-1722 -1731 0
-1723 -1724 0
-1723 -1725 0
-1723 -1726 0
-1723 -1727 0
-1723 -1728 0
-1723 -1729 0
-1723 -1730 0
-1723 -1731 0
-1724 -1725 0
-1724 -1726 0
-1724 -1727 0
-1724 -1728 0
-1724 -1729 0
-1724 -1730 0
-1724 -1731 0
-1725 -1726 0
-1725 -1727 0
-1725 -1728 0
-1725 -1729 0
-1725 -1730 0
-1725 -1731 0
-1726 -1727 0
-1726 -1728 0
-1726 -1729 0
-1726 -1730 0
-1726 -1731 0
-1727 -1728 0
-1727 -1729 0
-1727 -1730 0
-1727 -1731 0
-1728 -1729 0
-1728 -1730 0
-1728 -1731 0
-1729 -1730 0
-1729 -1731 0
-1730 -1731 0
1 2 3 4 5 6 7 8 9 10 11 12 13 14 0
-1 -2 0
-1 -3 0
-1 -4 0
-1 -5 0
-1 -6 0
-1 -7 0
-1 -8 0
-1 -9 0
-1 -10 0
-1 -11 0
-1 -12 0
-1 -13 0
-1 -14 0
-2 -3 0
-2 -4 0
-2 -5 0
-2 -6 0
-2 -7 0
-2 -8 0
-2 -9 0
-2 -10 0
-2 -11 0
-2 -12 0
-2 -13 0
-2 -14 0
-3 -4 0
-3 -5 0
-3 -6 0
-3 -7 0
-3 -8 0
-3 -9 0
-3 -10 0
-3 -11 0
-3 -12 0
-3 -13 0
-3 -14 0
-4 -5 0
-4 -6 0
-4 -7 0
-4 -8 0
-4 -9 0
-4 -10 0
-4 -11 0
-4 -12 0
-4 -13 0
-4 -14 0
-5 -6 0
-5 -7 0
-5 -8 0
-5 -9 0
-5 -10 0
-5 -11 0
-5 -12 0
-5 -13 0
-5 -14 0
-6 -7 0
-6 -8 0
-6 -9 0
-6 -10 0
-6 -11 0
-6 -12 0
-6 -13 0
-6 -14 0
-7 -8 0
-7 -9 0
-7 -10 0
-7 -11 0
-7 -12 0
-7 -13 0
-7 -14 0
-8 -9 0
-8 -10 0
-8 -11 0
-8 -12 0
-8 -13 0
-8 -14 0
-9 -10 0
-9 -11 0
-9 -12 0
-9 -13 0
-9 -14 0
-10 -11 0
-10 -12 0
-10 -13 0
-10 -14 0
-11 -12 0
-11 -13 0
-11 -14 0
-12 -13 0
-12 -14 0
-13 -14 0
